c t mc
c file mc2022_track1_132.cnf
p cnf 336 2394
1 0
9 10 0
17 18 19 0
25 26 27 28 0
33 34 35 36 37 0
41 42 43 44 45 46 0
49 50 51 52 53 54 55 0
57 58 59 60 61 62 63 64 0
65 66 67 68 69 70 71 72 0
73 74 75 76 77 78 79 80 0
81 82 83 84 85 86 87 88 0
89 90 91 92 93 94 95 96 0
97 98 99 100 101 102 103 104 0
105 106 107 108 109 110 111 112 0
113 114 115 116 117 118 119 120 0
121 122 123 124 125 126 127 128 0
129 130 131 132 133 134 135 136 0
137 138 139 140 141 142 143 144 0
145 146 147 148 149 150 151 152 0
153 154 155 156 157 158 159 160 0
161 162 163 164 165 166 167 168 0
169 170 171 172 173 174 175 176 0
177 178 179 180 181 182 183 184 0
185 186 187 188 189 190 191 192 0
193 194 195 196 197 198 199 200 0
201 202 203 204 205 206 207 208 0
209 210 211 212 213 214 215 216 0
217 218 219 220 221 222 223 224 0
225 226 227 228 229 230 231 232 0
233 234 235 236 237 238 239 240 0
241 242 243 244 245 246 247 248 0
249 250 251 252 253 254 255 256 0
257 258 259 260 261 262 263 264 0
265 266 267 268 269 270 271 272 0
273 274 275 276 277 278 279 280 0
281 282 283 284 285 286 287 288 0
289 290 291 292 293 294 295 296 0
297 298 299 300 301 302 303 304 0
305 306 307 308 309 310 311 312 0
313 314 315 316 317 318 319 320 0
321 322 323 324 325 326 327 328 0
329 330 331 332 333 334 335 336 0
-65 -201 0
-66 -202 0
-67 -203 0
-68 -204 0
-69 -205 0
-70 -206 0
-71 -207 0
-72 -208 0
-153 -193 0
-154 -194 0
-155 -195 0
-156 -196 0
-157 -197 0
-158 -198 0
-159 -199 0
-160 -200 0
-17 -273 0
-18 -274 0
-19 -275 0
-20 -276 0
-21 -277 0
-22 -278 0
-23 -279 0
-24 -280 0
-25 -281 0
-26 -282 0
-27 -283 0
-28 -284 0
-29 -285 0
-30 -286 0
-31 -287 0
-32 -288 0
-273 -321 0
-274 -322 0
-275 -323 0
-276 -324 0
-277 -325 0
-278 -326 0
-279 -327 0
-280 -328 0
-265 -273 0
-266 -274 0
-267 -275 0
-268 -276 0
-269 -277 0
-270 -278 0
-271 -279 0
-272 -280 0
-257 -321 0
-258 -322 0
-259 -323 0
-260 -324 0
-261 -325 0
-262 -326 0
-263 -327 0
-264 -328 0
-97 -233 0
-98 -234 0
-99 -235 0
-100 -236 0
-101 -237 0
-102 -238 0
-103 -239 0
-104 -240 0
-137 -233 0
-138 -234 0
-139 -235 0
-140 -236 0
-141 -237 0
-142 -238 0
-143 -239 0
-144 -240 0
-97 -249 0
-98 -250 0
-99 -251 0
-100 -252 0
-101 -253 0
-102 -254 0
-103 -255 0
-104 -256 0
-17 -185 0
-18 -186 0
-19 -187 0
-20 -188 0
-21 -189 0
-22 -190 0
-23 -191 0
-24 -192 0
-153 -273 0
-154 -274 0
-155 -275 0
-156 -276 0
-157 -277 0
-158 -278 0
-159 -279 0
-160 -280 0
-65 -161 0
-66 -162 0
-67 -163 0
-68 -164 0
-69 -165 0
-70 -166 0
-71 -167 0
-72 -168 0
-161 -265 0
-162 -266 0
-163 -267 0
-164 -268 0
-165 -269 0
-166 -270 0
-167 -271 0
-168 -272 0
-217 -273 0
-218 -274 0
-219 -275 0
-220 -276 0
-221 -277 0
-222 -278 0
-223 -279 0
-224 -280 0
-177 -273 0
-178 -274 0
-179 -275 0
-180 -276 0
-181 -277 0
-182 -278 0
-183 -279 0
-184 -280 0
-41 -193 0
-42 -194 0
-43 -195 0
-44 -196 0
-45 -197 0
-46 -198 0
-47 -199 0
-48 -200 0
-169 -321 0
-170 -322 0
-171 -323 0
-172 -324 0
-173 -325 0
-174 -326 0
-175 -327 0
-176 -328 0
-241 -273 0
-242 -274 0
-243 -275 0
-244 -276 0
-245 -277 0
-246 -278 0
-247 -279 0
-248 -280 0
-73 -273 0
-74 -274 0
-75 -275 0
-76 -276 0
-77 -277 0
-78 -278 0
-79 -279 0
-80 -280 0
-49 -321 0
-50 -322 0
-51 -323 0
-52 -324 0
-53 -325 0
-54 -326 0
-55 -327 0
-56 -328 0
-89 -265 0
-90 -266 0
-91 -267 0
-92 -268 0
-93 -269 0
-94 -270 0
-95 -271 0
-96 -272 0
-217 -241 0
-218 -242 0
-219 -243 0
-220 -244 0
-221 -245 0
-222 -246 0
-223 -247 0
-224 -248 0
-289 -321 0
-290 -322 0
-291 -323 0
-292 -324 0
-293 -325 0
-294 -326 0
-295 -327 0
-296 -328 0
-137 -273 0
-138 -274 0
-139 -275 0
-140 -276 0
-141 -277 0
-142 -278 0
-143 -279 0
-144 -280 0
-81 -329 0
-82 -330 0
-83 -331 0
-84 -332 0
-85 -333 0
-86 -334 0
-87 -335 0
-88 -336 0
-113 -265 0
-114 -266 0
-115 -267 0
-116 -268 0
-117 -269 0
-118 -270 0
-119 -271 0
-120 -272 0
-97 -273 0
-98 -274 0
-99 -275 0
-100 -276 0
-101 -277 0
-102 -278 0
-103 -279 0
-104 -280 0
-17 -177 0
-18 -178 0
-19 -179 0
-20 -180 0
-21 -181 0
-22 -182 0
-23 -183 0
-24 -184 0
-73 -97 0
-74 -98 0
-75 -99 0
-76 -100 0
-77 -101 0
-78 -102 0
-79 -103 0
-80 -104 0
-145 -305 0
-146 -306 0
-147 -307 0
-148 -308 0
-149 -309 0
-150 -310 0
-151 -311 0
-152 -312 0
-57 -161 0
-58 -162 0
-59 -163 0
-60 -164 0
-61 -165 0
-62 -166 0
-63 -167 0
-64 -168 0
-105 -185 0
-106 -186 0
-107 -187 0
-108 -188 0
-109 -189 0
-110 -190 0
-111 -191 0
-112 -192 0
-33 -185 0
-34 -186 0
-35 -187 0
-36 -188 0
-37 -189 0
-38 -190 0
-39 -191 0
-40 -192 0
-153 -249 0
-154 -250 0
-155 -251 0
-156 -252 0
-157 -253 0
-158 -254 0
-159 -255 0
-160 -256 0
-193 -297 0
-194 -298 0
-195 -299 0
-196 -300 0
-197 -301 0
-198 -302 0
-199 -303 0
-200 -304 0
-209 -305 0
-210 -306 0
-211 -307 0
-212 -308 0
-213 -309 0
-214 -310 0
-215 -311 0
-216 -312 0
-65 -121 0
-66 -122 0
-67 -123 0
-68 -124 0
-69 -125 0
-70 -126 0
-71 -127 0
-72 -128 0
-201 -289 0
-202 -290 0
-203 -291 0
-204 -292 0
-205 -293 0
-206 -294 0
-207 -295 0
-208 -296 0
-169 -305 0
-170 -306 0
-171 -307 0
-172 -308 0
-173 -309 0
-174 -310 0
-175 -311 0
-176 -312 0
-33 -161 0
-34 -162 0
-35 -163 0
-36 -164 0
-37 -165 0
-38 -166 0
-39 -167 0
-40 -168 0
-17 -313 0
-18 -314 0
-19 -315 0
-20 -316 0
-21 -317 0
-22 -318 0
-23 -319 0
-24 -320 0
-81 -161 0
-82 -162 0
-83 -163 0
-84 -164 0
-85 -165 0
-86 -166 0
-87 -167 0
-88 -168 0
-49 -169 0
-50 -170 0
-51 -171 0
-52 -172 0
-53 -173 0
-54 -174 0
-55 -175 0
-56 -176 0
-169 -329 0
-170 -330 0
-171 -331 0
-172 -332 0
-173 -333 0
-174 -334 0
-175 -335 0
-176 -336 0
-233 -305 0
-234 -306 0
-235 -307 0
-236 -308 0
-237 -309 0
-238 -310 0
-239 -311 0
-240 -312 0
-89 -169 0
-90 -170 0
-91 -171 0
-92 -172 0
-93 -173 0
-94 -174 0
-95 -175 0
-96 -176 0
-73 -321 0
-74 -322 0
-75 -323 0
-76 -324 0
-77 -325 0
-78 -326 0
-79 -327 0
-80 -328 0
-1 -241 0
-2 -242 0
-3 -243 0
-4 -244 0
-5 -245 0
-6 -246 0
-7 -247 0
-8 -248 0
-65 -305 0
-66 -306 0
-67 -307 0
-68 -308 0
-69 -309 0
-70 -310 0
-71 -311 0
-72 -312 0
-121 -297 0
-122 -298 0
-123 -299 0
-124 -300 0
-125 -301 0
-126 -302 0
-127 -303 0
-128 -304 0
-169 -193 0
-170 -194 0
-171 -195 0
-172 -196 0
-173 -197 0
-174 -198 0
-175 -199 0
-176 -200 0
-97 -177 0
-98 -178 0
-99 -179 0
-100 -180 0
-101 -181 0
-102 -182 0
-103 -183 0
-104 -184 0
-41 -321 0
-42 -322 0
-43 -323 0
-44 -324 0
-45 -325 0
-46 -326 0
-47 -327 0
-48 -328 0
-265 -321 0
-266 -322 0
-267 -323 0
-268 -324 0
-269 -325 0
-270 -326 0
-271 -327 0
-272 -328 0
-129 -305 0
-130 -306 0
-131 -307 0
-132 -308 0
-133 -309 0
-134 -310 0
-135 -311 0
-136 -312 0
-105 -281 0
-106 -282 0
-107 -283 0
-108 -284 0
-109 -285 0
-110 -286 0
-111 -287 0
-112 -288 0
-25 -113 0
-26 -114 0
-27 -115 0
-28 -116 0
-29 -117 0
-30 -118 0
-31 -119 0
-32 -120 0
-89 -305 0
-90 -306 0
-91 -307 0
-92 -308 0
-93 -309 0
-94 -310 0
-95 -311 0
-96 -312 0
-81 -321 0
-82 -322 0
-83 -323 0
-84 -324 0
-85 -325 0
-86 -326 0
-87 -327 0
-88 -328 0
-113 -257 0
-114 -258 0
-115 -259 0
-116 -260 0
-117 -261 0
-118 -262 0
-119 -263 0
-120 -264 0
-33 -105 0
-34 -106 0
-35 -107 0
-36 -108 0
-37 -109 0
-38 -110 0
-39 -111 0
-40 -112 0
-185 -281 0
-186 -282 0
-187 -283 0
-188 -284 0
-189 -285 0
-190 -286 0
-191 -287 0
-192 -288 0
-17 -137 0
-18 -138 0
-19 -139 0
-20 -140 0
-21 -141 0
-22 -142 0
-23 -143 0
-24 -144 0
-145 -265 0
-146 -266 0
-147 -267 0
-148 -268 0
-149 -269 0
-150 -270 0
-151 -271 0
-152 -272 0
-153 -329 0
-154 -330 0
-155 -331 0
-156 -332 0
-157 -333 0
-158 -334 0
-159 -335 0
-160 -336 0
-193 -257 0
-194 -258 0
-195 -259 0
-196 -260 0
-197 -261 0
-198 -262 0
-199 -263 0
-200 -264 0
-41 -97 0
-42 -98 0
-43 -99 0
-44 -100 0
-45 -101 0
-46 -102 0
-47 -103 0
-48 -104 0
-153 -289 0
-154 -290 0
-155 -291 0
-156 -292 0
-157 -293 0
-158 -294 0
-159 -295 0
-160 -296 0
-17 -305 0
-18 -306 0
-19 -307 0
-20 -308 0
-21 -309 0
-22 -310 0
-23 -311 0
-24 -312 0
-209 -265 0
-210 -266 0
-211 -267 0
-212 -268 0
-213 -269 0
-214 -270 0
-215 -271 0
-216 -272 0
-65 -145 0
-66 -146 0
-67 -147 0
-68 -148 0
-69 -149 0
-70 -150 0
-71 -151 0
-72 -152 0
-201 -297 0
-202 -298 0
-203 -299 0
-204 -300 0
-205 -301 0
-206 -302 0
-207 -303 0
-208 -304 0
-169 -249 0
-170 -250 0
-171 -251 0
-172 -252 0
-173 -253 0
-174 -254 0
-175 -255 0
-176 -256 0
-33 -313 0
-34 -314 0
-35 -315 0
-36 -316 0
-37 -317 0
-38 -318 0
-39 -319 0
-40 -320 0
-25 -249 0
-26 -250 0
-27 -251 0
-28 -252 0
-29 -253 0
-30 -254 0
-31 -255 0
-32 -256 0
-81 -121 0
-82 -122 0
-83 -123 0
-84 -124 0
-85 -125 0
-86 -126 0
-87 -127 0
-88 -128 0
-57 -273 0
-58 -274 0
-59 -275 0
-60 -276 0
-61 -277 0
-62 -278 0
-63 -279 0
-64 -280 0
-49 -161 0
-50 -162 0
-51 -163 0
-52 -164 0
-53 -165 0
-54 -166 0
-55 -167 0
-56 -168 0
-33 -289 0
-34 -290 0
-35 -291 0
-36 -292 0
-37 -293 0
-38 -294 0
-39 -295 0
-40 -296 0
-65 -265 0
-66 -266 0
-67 -267 0
-68 -268 0
-69 -269 0
-70 -270 0
-71 -271 0
-72 -272 0
-121 -273 0
-122 -274 0
-123 -275 0
-124 -276 0
-125 -277 0
-126 -278 0
-127 -279 0
-128 -280 0
-169 -201 0
-170 -202 0
-171 -203 0
-172 -204 0
-173 -205 0
-174 -206 0
-175 -207 0
-176 -208 0
-97 -201 0
-98 -202 0
-99 -203 0
-100 -204 0
-101 -205 0
-102 -206 0
-103 -207 0
-104 -208 0
-81 -273 0
-82 -274 0
-83 -275 0
-84 -276 0
-85 -277 0
-86 -278 0
-87 -279 0
-88 -280 0
-49 -297 0
-50 -298 0
-51 -299 0
-52 -300 0
-53 -301 0
-54 -302 0
-55 -303 0
-56 -304 0
-265 -329 0
-266 -330 0
-267 -331 0
-268 -332 0
-269 -333 0
-270 -334 0
-271 -335 0
-272 -336 0
-129 -265 0
-130 -266 0
-131 -267 0
-132 -268 0
-133 -269 0
-134 -270 0
-135 -271 0
-136 -272 0
-17 -217 0
-18 -218 0
-19 -219 0
-20 -220 0
-21 -221 0
-22 -222 0
-23 -223 0
-24 -224 0
-113 -281 0
-114 -282 0
-115 -283 0
-116 -284 0
-117 -285 0
-118 -286 0
-119 -287 0
-120 -288 0
-97 -321 0
-98 -322 0
-99 -323 0
-100 -324 0
-101 -325 0
-102 -326 0
-103 -327 0
-104 -328 0
-17 -129 0
-18 -130 0
-19 -131 0
-20 -132 0
-21 -133 0
-22 -134 0
-23 -135 0
-24 -136 0
-113 -201 0
-114 -202 0
-115 -203 0
-116 -204 0
-117 -205 0
-118 -206 0
-119 -207 0
-120 -208 0
-153 -201 0
-154 -202 0
-155 -203 0
-156 -204 0
-157 -205 0
-158 -206 0
-159 -207 0
-160 -208 0
-17 -265 0
-18 -266 0
-19 -267 0
-20 -268 0
-21 -269 0
-22 -270 0
-23 -271 0
-24 -272 0
-49 -113 0
-50 -114 0
-51 -115 0
-52 -116 0
-53 -117 0
-54 -118 0
-55 -119 0
-56 -120 0
-161 -209 0
-162 -210 0
-163 -211 0
-164 -212 0
-165 -213 0
-166 -214 0
-167 -215 0
-168 -216 0
-89 -97 0
-90 -98 0
-91 -99 0
-92 -100 0
-93 -101 0
-94 -102 0
-95 -103 0
-96 -104 0
-153 -161 0
-154 -162 0
-155 -163 0
-156 -164 0
-157 -165 0
-158 -166 0
-159 -167 0
-160 -168 0
-9 -177 0
-10 -178 0
-11 -179 0
-12 -180 0
-13 -181 0
-14 -182 0
-15 -183 0
-16 -184 0
-49 -289 0
-50 -290 0
-51 -291 0
-52 -292 0
-53 -293 0
-54 -294 0
-55 -295 0
-56 -296 0
-97 -225 0
-98 -226 0
-99 -227 0
-100 -228 0
-101 -229 0
-102 -230 0
-103 -231 0
-104 -232 0
-137 -241 0
-138 -242 0
-139 -243 0
-140 -244 0
-141 -245 0
-142 -246 0
-143 -247 0
-144 -248 0
-89 -321 0
-90 -322 0
-91 -323 0
-92 -324 0
-93 -325 0
-94 -326 0
-95 -327 0
-96 -328 0
-17 -209 0
-18 -210 0
-19 -211 0
-20 -212 0
-21 -213 0
-22 -214 0
-23 -215 0
-24 -216 0
-297 -321 0
-298 -322 0
-299 -323 0
-300 -324 0
-301 -325 0
-302 -326 0
-303 -327 0
-304 -328 0
-65 -153 0
-66 -154 0
-67 -155 0
-68 -156 0
-69 -157 0
-70 -158 0
-71 -159 0
-72 -160 0
-113 -193 0
-114 -194 0
-115 -195 0
-116 -196 0
-117 -197 0
-118 -198 0
-119 -199 0
-120 -200 0
-161 -257 0
-162 -258 0
-163 -259 0
-164 -260 0
-165 -261 0
-166 -262 0
-167 -263 0
-168 -264 0
-17 -257 0
-18 -258 0
-19 -259 0
-20 -260 0
-21 -261 0
-22 -262 0
-23 -263 0
-24 -264 0
-57 -329 0
-58 -330 0
-59 -331 0
-60 -332 0
-61 -333 0
-62 -334 0
-63 -335 0
-64 -336 0
-81 -201 0
-82 -202 0
-83 -203 0
-84 -204 0
-85 -205 0
-86 -206 0
-87 -207 0
-88 -208 0
-257 -297 0
-258 -298 0
-259 -299 0
-260 -300 0
-261 -301 0
-262 -302 0
-263 -303 0
-264 -304 0
-121 -201 0
-122 -202 0
-123 -203 0
-124 -204 0
-125 -205 0
-126 -206 0
-127 -207 0
-128 -208 0
-273 -305 0
-274 -306 0
-275 -307 0
-276 -308 0
-277 -309 0
-278 -310 0
-279 -311 0
-280 -312 0
-265 -289 0
-266 -290 0
-267 -291 0
-268 -292 0
-269 -293 0
-270 -294 0
-271 -295 0
-272 -296 0
-105 -313 0
-106 -314 0
-107 -315 0
-108 -316 0
-109 -317 0
-110 -318 0
-111 -319 0
-112 -320 0
-65 -97 0
-66 -98 0
-67 -99 0
-68 -100 0
-69 -101 0
-70 -102 0
-71 -103 0
-72 -104 0
-185 -313 0
-186 -314 0
-187 -315 0
-188 -316 0
-189 -317 0
-190 -318 0
-191 -319 0
-192 -320 0
-97 -265 0
-98 -266 0
-99 -267 0
-100 -268 0
-101 -269 0
-102 -270 0
-103 -271 0
-104 -272 0
-297 -305 0
-298 -306 0
-299 -307 0
-300 -308 0
-301 -309 0
-302 -310 0
-303 -311 0
-304 -312 0
-17 -169 0
-18 -170 0
-19 -171 0
-20 -172 0
-21 -173 0
-22 -174 0
-23 -175 0
-24 -176 0
-145 -297 0
-146 -298 0
-147 -299 0
-148 -300 0
-149 -301 0
-150 -302 0
-151 -303 0
-152 -304 0
-193 -289 0
-194 -290 0
-195 -291 0
-196 -292 0
-197 -293 0
-198 -294 0
-199 -295 0
-200 -296 0
-297 -329 0
-298 -330 0
-299 -331 0
-300 -332 0
-301 -333 0
-302 -334 0
-303 -335 0
-304 -336 0
-153 -257 0
-154 -258 0
-155 -259 0
-156 -260 0
-157 -261 0
-158 -262 0
-159 -263 0
-160 -264 0
-145 -209 0
-146 -210 0
-147 -211 0
-148 -212 0
-149 -213 0
-150 -214 0
-151 -215 0
-152 -216 0
-201 -265 0
-202 -266 0
-203 -267 0
-204 -268 0
-205 -269 0
-206 -270 0
-207 -271 0
-208 -272 0
-41 -153 0
-42 -154 0
-43 -155 0
-44 -156 0
-45 -157 0
-46 -158 0
-47 -159 0
-48 -160 0
-33 -153 0
-34 -154 0
-35 -155 0
-36 -156 0
-37 -157 0
-38 -158 0
-39 -159 0
-40 -160 0
-169 -281 0
-170 -282 0
-171 -283 0
-172 -284 0
-173 -285 0
-174 -286 0
-175 -287 0
-176 -288 0
-81 -153 0
-82 -154 0
-83 -155 0
-84 -156 0
-85 -157 0
-86 -158 0
-87 -159 0
-88 -160 0
-73 -153 0
-74 -154 0
-75 -155 0
-76 -156 0
-77 -157 0
-78 -158 0
-79 -159 0
-80 -160 0
-57 -305 0
-58 -306 0
-59 -307 0
-60 -308 0
-61 -309 0
-62 -310 0
-63 -311 0
-64 -312 0
-249 -281 0
-250 -282 0
-251 -283 0
-252 -284 0
-253 -285 0
-254 -286 0
-255 -287 0
-256 -288 0
-33 -257 0
-34 -258 0
-35 -259 0
-36 -260 0
-37 -261 0
-38 -262 0
-39 -263 0
-40 -264 0
-1 -233 0
-2 -234 0
-3 -235 0
-4 -236 0
-5 -237 0
-6 -238 0
-7 -239 0
-8 -240 0
-65 -297 0
-66 -298 0
-67 -299 0
-68 -300 0
-69 -301 0
-70 -302 0
-71 -303 0
-72 -304 0
-49 -265 0
-50 -266 0
-51 -267 0
-52 -268 0
-53 -269 0
-54 -270 0
-55 -271 0
-56 -272 0
-121 -305 0
-122 -306 0
-123 -307 0
-124 -308 0
-125 -309 0
-126 -310 0
-127 -311 0
-128 -312 0
-17 -113 0
-18 -114 0
-19 -115 0
-20 -116 0
-21 -117 0
-22 -118 0
-23 -119 0
-24 -120 0
-9 -225 0
-10 -226 0
-11 -227 0
-12 -228 0
-13 -229 0
-14 -230 0
-15 -231 0
-16 -232 0
-73 -289 0
-74 -290 0
-75 -291 0
-76 -292 0
-77 -293 0
-78 -294 0
-79 -295 0
-80 -296 0
-265 -297 0
-266 -298 0
-267 -299 0
-268 -300 0
-269 -301 0
-270 -302 0
-271 -303 0
-272 -304 0
-177 -241 0
-178 -242 0
-179 -243 0
-180 -244 0
-181 -245 0
-182 -246 0
-183 -247 0
-184 -248 0
-81 -305 0
-82 -306 0
-83 -307 0
-84 -308 0
-85 -309 0
-86 -310 0
-87 -311 0
-88 -312 0
-217 -225 0
-218 -226 0
-219 -227 0
-220 -228 0
-221 -229 0
-222 -230 0
-223 -231 0
-224 -232 0
-113 -249 0
-114 -250 0
-115 -251 0
-116 -252 0
-117 -253 0
-118 -254 0
-119 -255 0
-120 -256 0
-33 -97 0
-34 -98 0
-35 -99 0
-36 -100 0
-37 -101 0
-38 -102 0
-39 -103 0
-40 -104 0
-97 -289 0
-98 -290 0
-99 -291 0
-100 -292 0
-101 -293 0
-102 -294 0
-103 -295 0
-104 -296 0
-17 -161 0
-18 -162 0
-19 -163 0
-20 -164 0
-21 -165 0
-22 -166 0
-23 -167 0
-24 -168 0
-73 -113 0
-74 -114 0
-75 -115 0
-76 -116 0
-77 -117 0
-78 -118 0
-79 -119 0
-80 -120 0
-145 -289 0
-146 -290 0
-147 -291 0
-148 -292 0
-149 -293 0
-150 -294 0
-151 -295 0
-152 -296 0
-57 -145 0
-58 -146 0
-59 -147 0
-60 -148 0
-61 -149 0
-62 -150 0
-63 -151 0
-64 -152 0
-161 -329 0
-162 -330 0
-163 -331 0
-164 -332 0
-165 -333 0
-166 -334 0
-167 -335 0
-168 -336 0
-25 -169 0
-26 -170 0
-27 -171 0
-28 -172 0
-29 -173 0
-30 -174 0
-31 -175 0
-32 -176 0
-145 -169 0
-146 -170 0
-147 -171 0
-148 -172 0
-149 -173 0
-150 -174 0
-151 -175 0
-152 -176 0
-73 -201 0
-74 -202 0
-75 -203 0
-76 -204 0
-77 -205 0
-78 -206 0
-79 -207 0
-80 -208 0
-17 -297 0
-18 -298 0
-19 -299 0
-20 -300 0
-21 -301 0
-22 -302 0
-23 -303 0
-24 -304 0
-153 -297 0
-154 -298 0
-155 -299 0
-156 -300 0
-157 -301 0
-158 -302 0
-159 -303 0
-160 -304 0
-169 -257 0
-170 -258 0
-171 -259 0
-172 -260 0
-173 -261 0
-174 -262 0
-175 -263 0
-176 -264 0
-161 -305 0
-162 -306 0
-163 -307 0
-164 -308 0
-165 -309 0
-166 -310 0
-167 -311 0
-168 -312 0
-201 -305 0
-202 -306 0
-203 -307 0
-204 -308 0
-205 -309 0
-206 -310 0
-207 -311 0
-208 -312 0
-81 -145 0
-82 -146 0
-83 -147 0
-84 -148 0
-85 -149 0
-86 -150 0
-87 -151 0
-88 -152 0
-49 -153 0
-50 -154 0
-51 -155 0
-52 -156 0
-53 -157 0
-54 -158 0
-55 -159 0
-56 -160 0
-33 -281 0
-34 -282 0
-35 -283 0
-36 -284 0
-37 -285 0
-38 -286 0
-39 -287 0
-40 -288 0
-89 -153 0
-90 -154 0
-91 -155 0
-92 -156 0
-93 -157 0
-94 -158 0
-95 -159 0
-96 -160 0
-129 -217 0
-130 -218 0
-131 -219 0
-132 -220 0
-133 -221 0
-134 -222 0
-135 -223 0
-136 -224 0
-97 -193 0
-98 -194 0
-99 -195 0
-100 -196 0
-101 -197 0
-102 -198 0
-103 -199 0
-104 -200 0
-81 -265 0
-82 -266 0
-83 -267 0
-84 -268 0
-85 -269 0
-86 -270 0
-87 -271 0
-88 -272 0
-9 -233 0
-10 -234 0
-11 -235 0
-12 -236 0
-13 -237 0
-14 -238 0
-15 -239 0
-16 -240 0
-73 -297 0
-74 -298 0
-75 -299 0
-76 -300 0
-77 -301 0
-78 -302 0
-79 -303 0
-80 -304 0
-113 -329 0
-114 -330 0
-115 -331 0
-116 -332 0
-117 -333 0
-118 -334 0
-119 -335 0
-120 -336 0
-25 -97 0
-26 -98 0
-27 -99 0
-28 -100 0
-29 -101 0
-30 -102 0
-31 -103 0
-32 -104 0
-17 -241 0
-18 -242 0
-19 -243 0
-20 -244 0
-21 -245 0
-22 -246 0
-23 -247 0
-24 -248 0
-89 -289 0
-90 -290 0
-91 -291 0
-92 -292 0
-93 -293 0
-94 -294 0
-95 -295 0
-96 -296 0
-65 -81 0
-66 -82 0
-67 -83 0
-68 -84 0
-69 -85 0
-70 -86 0
-71 -87 0
-72 -88 0
-97 -313 0
-98 -314 0
-99 -315 0
-100 -316 0
-101 -317 0
-102 -318 0
-103 -319 0
-104 -320 0
-25 -185 0
-26 -186 0
-27 -187 0
-28 -188 0
-29 -189 0
-30 -190 0
-31 -191 0
-32 -192 0
-17 -121 0
-18 -122 0
-19 -123 0
-20 -124 0
-21 -125 0
-22 -126 0
-23 -127 0
-24 -128 0
-153 -313 0
-154 -314 0
-155 -315 0
-156 -316 0
-157 -317 0
-158 -318 0
-159 -319 0
-160 -320 0
-57 -121 0
-58 -122 0
-59 -123 0
-60 -124 0
-61 -125 0
-62 -126 0
-63 -127 0
-64 -128 0
-41 -113 0
-42 -114 0
-43 -115 0
-44 -116 0
-45 -117 0
-46 -118 0
-47 -119 0
-48 -120 0
-153 -209 0
-154 -210 0
-155 -211 0
-156 -212 0
-157 -213 0
-158 -214 0
-159 -215 0
-160 -216 0
-145 -161 0
-146 -162 0
-147 -163 0
-148 -164 0
-149 -165 0
-150 -166 0
-151 -167 0
-152 -168 0
-17 -289 0
-18 -290 0
-19 -291 0
-20 -292 0
-21 -293 0
-22 -294 0
-23 -295 0
-24 -296 0
-9 -305 0
-10 -306 0
-11 -307 0
-12 -308 0
-13 -309 0
-14 -310 0
-15 -311 0
-16 -312 0
-169 -265 0
-170 -266 0
-171 -267 0
-172 -268 0
-173 -269 0
-174 -270 0
-175 -271 0
-176 -272 0
-161 -201 0
-162 -202 0
-163 -203 0
-164 -204 0
-165 -205 0
-166 -206 0
-167 -207 0
-168 -208 0
-153 -169 0
-154 -170 0
-155 -171 0
-156 -172 0
-157 -173 0
-158 -174 0
-159 -175 0
-160 -176 0
-137 -217 0
-138 -218 0
-139 -219 0
-140 -220 0
-141 -221 0
-142 -222 0
-143 -223 0
-144 -224 0
-113 -321 0
-114 -322 0
-115 -323 0
-116 -324 0
-117 -325 0
-118 -326 0
-119 -327 0
-120 -328 0
-89 -329 0
-90 -330 0
-91 -331 0
-92 -332 0
-93 -333 0
-94 -334 0
-95 -335 0
-96 -336 0
-57 -201 0
-58 -202 0
-59 -203 0
-60 -204 0
-61 -205 0
-62 -206 0
-63 -207 0
-64 -208 0
-193 -321 0
-194 -322 0
-195 -323 0
-196 -324 0
-197 -325 0
-198 -326 0
-199 -327 0
-200 -328 0
-1 -273 0
-2 -274 0
-3 -275 0
-4 -276 0
-5 -277 0
-6 -278 0
-7 -279 0
-8 -280 0
-113 -185 0
-114 -186 0
-115 -187 0
-116 -188 0
-117 -189 0
-118 -190 0
-119 -191 0
-120 -192 0
-153 -185 0
-154 -186 0
-155 -187 0
-156 -188 0
-157 -189 0
-158 -190 0
-159 -191 0
-160 -192 0
-17 -249 0
-18 -250 0
-19 -251 0
-20 -252 0
-21 -253 0
-22 -254 0
-23 -255 0
-24 -256 0
-113 -289 0
-114 -290 0
-115 -291 0
-116 -292 0
-117 -293 0
-118 -294 0
-119 -295 0
-120 -296 0
-25 -313 0
-26 -314 0
-27 -315 0
-28 -316 0
-29 -317 0
-30 -318 0
-31 -319 0
-32 -320 0
-49 -97 0
-50 -98 0
-51 -99 0
-52 -100 0
-53 -101 0
-54 -102 0
-55 -103 0
-56 -104 0
-89 -145 0
-90 -146 0
-91 -147 0
-92 -148 0
-93 -149 0
-94 -150 0
-95 -151 0
-96 -152 0
-65 -329 0
-66 -330 0
-67 -331 0
-68 -332 0
-69 -333 0
-70 -334 0
-71 -335 0
-72 -336 0
-257 -289 0
-258 -290 0
-259 -291 0
-260 -292 0
-261 -293 0
-262 -294 0
-263 -295 0
-264 -296 0
-121 -209 0
-122 -210 0
-123 -211 0
-124 -212 0
-125 -213 0
-126 -214 0
-127 -215 0
-128 -216 0
-41 -265 0
-42 -266 0
-43 -267 0
-44 -268 0
-45 -269 0
-46 -270 0
-47 -271 0
-48 -272 0
-97 -241 0
-98 -242 0
-99 -243 0
-100 -244 0
-101 -245 0
-102 -246 0
-103 -247 0
-104 -248 0
-65 -89 0
-66 -90 0
-67 -91 0
-68 -92 0
-69 -93 0
-70 -94 0
-71 -95 0
-72 -96 0
-97 -257 0
-98 -258 0
-99 -259 0
-100 -260 0
-101 -261 0
-102 -262 0
-103 -263 0
-104 -264 0
-17 -193 0
-18 -194 0
-19 -195 0
-20 -196 0
-21 -197 0
-22 -198 0
-23 -199 0
-24 -200 0
-73 -81 0
-74 -82 0
-75 -83 0
-76 -84 0
-77 -85 0
-78 -86 0
-79 -87 0
-80 -88 0
-153 -265 0
-154 -266 0
-155 -267 0
-156 -268 0
-157 -269 0
-158 -270 0
-159 -271 0
-160 -272 0
-145 -201 0
-146 -202 0
-147 -203 0
-148 -204 0
-149 -205 0
-150 -206 0
-151 -207 0
-152 -208 0
-17 -329 0
-18 -330 0
-19 -331 0
-20 -332 0
-21 -333 0
-22 -334 0
-23 -335 0
-24 -336 0
-65 -169 0
-66 -170 0
-67 -171 0
-68 -172 0
-69 -173 0
-70 -174 0
-71 -175 0
-72 -176 0
-201 -273 0
-202 -274 0
-203 -275 0
-204 -276 0
-205 -277 0
-206 -278 0
-207 -279 0
-208 -280 0
-41 -161 0
-42 -162 0
-43 -163 0
-44 -164 0
-45 -165 0
-46 -166 0
-47 -167 0
-48 -168 0
-161 -273 0
-162 -274 0
-163 -275 0
-164 -276 0
-165 -277 0
-166 -278 0
-167 -279 0
-168 -280 0
-169 -289 0
-170 -290 0
-171 -291 0
-172 -292 0
-173 -293 0
-174 -294 0
-175 -295 0
-176 -296 0
-217 -265 0
-218 -266 0
-219 -267 0
-220 -268 0
-221 -269 0
-222 -270 0
-223 -271 0
-224 -272 0
-73 -161 0
-74 -162 0
-75 -163 0
-76 -164 0
-77 -165 0
-78 -166 0
-79 -167 0
-80 -168 0
-209 -329 0
-210 -330 0
-211 -331 0
-212 -332 0
-213 -333 0
-214 -334 0
-215 -335 0
-216 -336 0
-169 -313 0
-170 -314 0
-171 -315 0
-172 -316 0
-173 -317 0
-174 -318 0
-175 -319 0
-176 -320 0
-33 -249 0
-34 -250 0
-35 -251 0
-36 -252 0
-37 -253 0
-38 -254 0
-39 -255 0
-40 -256 0
-89 -121 0
-90 -122 0
-91 -123 0
-92 -124 0
-93 -125 0
-94 -126 0
-95 -127 0
-96 -128 0
-1 -225 0
-2 -226 0
-3 -227 0
-4 -228 0
-5 -229 0
-6 -230 0
-7 -231 0
-8 -232 0
-65 -289 0
-66 -290 0
-67 -291 0
-68 -292 0
-69 -293 0
-70 -294 0
-71 -295 0
-72 -296 0
-249 -313 0
-250 -314 0
-251 -315 0
-252 -316 0
-253 -317 0
-254 -318 0
-255 -319 0
-256 -320 0
-17 -105 0
-18 -106 0
-19 -107 0
-20 -108 0
-21 -109 0
-22 -110 0
-23 -111 0
-24 -112 0
-73 -265 0
-74 -266 0
-75 -267 0
-76 -268 0
-77 -269 0
-78 -270 0
-79 -271 0
-80 -272 0
-265 -305 0
-266 -306 0
-267 -307 0
-268 -308 0
-269 -309 0
-270 -310 0
-271 -311 0
-272 -312 0
-177 -233 0
-178 -234 0
-179 -235 0
-180 -236 0
-181 -237 0
-182 -238 0
-183 -239 0
-184 -240 0
-289 -329 0
-290 -330 0
-291 -331 0
-292 -332 0
-293 -333 0
-294 -334 0
-295 -335 0
-296 -336 0
-217 -233 0
-218 -234 0
-219 -235 0
-220 -236 0
-221 -237 0
-222 -238 0
-223 -239 0
-224 -240 0
-65 -113 0
-66 -114 0
-67 -115 0
-68 -116 0
-69 -117 0
-70 -118 0
-71 -119 0
-72 -120 0
-97 -281 0
-98 -282 0
-99 -283 0
-100 -284 0
-101 -285 0
-102 -286 0
-103 -287 0
-104 -288 0
-289 -305 0
-290 -306 0
-291 -307 0
-292 -308 0
-293 -309 0
-294 -310 0
-295 -311 0
-296 -312 0
-17 -153 0
-18 -154 0
-19 -155 0
-20 -156 0
-21 -157 0
-22 -158 0
-23 -159 0
-24 -160 0
-73 -89 0
-74 -90 0
-75 -91 0
-76 -92 0
-77 -93 0
-78 -94 0
-79 -95 0
-80 -96 0
-201 -321 0
-202 -322 0
-203 -323 0
-204 -324 0
-205 -325 0
-206 -326 0
-207 -327 0
-208 -328 0
-57 -153 0
-58 -154 0
-59 -155 0
-60 -156 0
-61 -157 0
-62 -158 0
-63 -159 0
-64 -160 0
-33 -193 0
-34 -194 0
-35 -195 0
-36 -196 0
-37 -197 0
-38 -198 0
-39 -199 0
-40 -200 0
-161 -321 0
-162 -322 0
-163 -323 0
-164 -324 0
-165 -325 0
-166 -326 0
-167 -327 0
-168 -328 0
-17 -321 0
-18 -322 0
-19 -323 0
-20 -324 0
-21 -325 0
-22 -326 0
-23 -327 0
-24 -328 0
-9 -273 0
-10 -274 0
-11 -275 0
-12 -276 0
-13 -277 0
-14 -278 0
-15 -279 0
-16 -280 0
-41 -169 0
-42 -170 0
-43 -171 0
-44 -172 0
-45 -173 0
-46 -174 0
-47 -175 0
-48 -176 0
-33 -169 0
-34 -170 0
-35 -171 0
-36 -172 0
-37 -173 0
-38 -174 0
-39 -175 0
-40 -176 0
-161 -297 0
-162 -298 0
-163 -299 0
-164 -300 0
-165 -301 0
-166 -302 0
-167 -303 0
-168 -304 0
-217 -305 0
-218 -306 0
-219 -307 0
-220 -308 0
-221 -309 0
-222 -310 0
-223 -311 0
-224 -312 0
-73 -169 0
-74 -170 0
-75 -171 0
-76 -172 0
-77 -173 0
-78 -174 0
-79 -175 0
-80 -176 0
-177 -305 0
-178 -306 0
-179 -307 0
-180 -308 0
-181 -309 0
-182 -310 0
-183 -311 0
-184 -312 0
-41 -289 0
-42 -290 0
-43 -291 0
-44 -292 0
-45 -293 0
-46 -294 0
-47 -295 0
-48 -296 0
-89 -161 0
-90 -162 0
-91 -163 0
-92 -164 0
-93 -165 0
-94 -166 0
-95 -167 0
-96 -168 0
-169 -185 0
-170 -186 0
-171 -187 0
-172 -188 0
-173 -189 0
-174 -190 0
-175 -191 0
-176 -192 0
-97 -185 0
-98 -186 0
-99 -187 0
-100 -188 0
-101 -189 0
-102 -190 0
-103 -191 0
-104 -192 0
-17 -97 0
-18 -98 0
-19 -99 0
-20 -100 0
-21 -101 0
-22 -102 0
-23 -103 0
-24 -104 0
-9 -241 0
-10 -242 0
-11 -243 0
-12 -244 0
-13 -245 0
-14 -246 0
-15 -247 0
-16 -248 0
-241 -305 0
-242 -306 0
-243 -307 0
-244 -308 0
-245 -309 0
-246 -310 0
-247 -311 0
-248 -312 0
-281 -313 0
-282 -314 0
-283 -315 0
-284 -316 0
-285 -317 0
-286 -318 0
-287 -319 0
-288 -320 0
-177 -225 0
-178 -226 0
-179 -227 0
-180 -228 0
-181 -229 0
-182 -230 0
-183 -231 0
-184 -232 0
-89 -297 0
-90 -298 0
-91 -299 0
-92 -300 0
-93 -301 0
-94 -302 0
-95 -303 0
-96 -304 0
-17 -233 0
-18 -234 0
-19 -235 0
-20 -236 0
-21 -237 0
-22 -238 0
-23 -239 0
-24 -240 0
-137 -305 0
-138 -306 0
-139 -307 0
-140 -308 0
-141 -309 0
-142 -310 0
-143 -311 0
-144 -312 0
-33 -113 0
-34 -114 0
-35 -115 0
-36 -116 0
-37 -117 0
-38 -118 0
-39 -119 0
-40 -120 0
-97 -305 0
-98 -306 0
-99 -307 0
-100 -308 0
-101 -309 0
-102 -310 0
-103 -311 0
-104 -312 0
-17 -145 0
-18 -146 0
-19 -147 0
-20 -148 0
-21 -149 0
-22 -150 0
-23 -151 0
-24 -152 0
-145 -273 0
-146 -274 0
-147 -275 0
-148 -276 0
-149 -277 0
-150 -278 0
-151 -279 0
-152 -280 0
-1 -305 0
-2 -306 0
-3 -307 0
-4 -308 0
-5 -309 0
-6 -310 0
-7 -311 0
-8 -312 0
-193 -265 0
-194 -266 0
-195 -267 0
-196 -268 0
-197 -269 0
-198 -270 0
-199 -271 0
-200 -272 0
-153 -321 0
-154 -322 0
-155 -323 0
-156 -324 0
-157 -325 0
-158 -326 0
-159 -327 0
-160 -328 0
-201 -329 0
-202 -330 0
-203 -331 0
-204 -332 0
-205 -333 0
-206 -334 0
-207 -335 0
-208 -336 0
-25 -153 0
-26 -154 0
-27 -155 0
-28 -156 0
-29 -157 0
-30 -158 0
-31 -159 0
-32 -160 0
-17 -281 0
-18 -282 0
-19 -283 0
-20 -284 0
-21 -285 0
-22 -286 0
-23 -287 0
-24 -288 0
-209 -273 0
-210 -274 0
-211 -275 0
-212 -276 0
-213 -277 0
-214 -278 0
-215 -279 0
-216 -280 0
-153 -281 0
-154 -282 0
-155 -283 0
-156 -284 0
-157 -285 0
-158 -286 0
-159 -287 0
-160 -288 0
-161 -193 0
-162 -194 0
-163 -195 0
-164 -196 0
-165 -197 0
-166 -198 0
-167 -199 0
-168 -200 0
-89 -113 0
-90 -114 0
-91 -115 0
-92 -116 0
-93 -117 0
-94 -118 0
-95 -119 0
-96 -120 0
-33 -321 0
-34 -322 0
-35 -323 0
-36 -324 0
-37 -325 0
-38 -326 0
-39 -327 0
-40 -328 0
-57 -265 0
-58 -266 0
-59 -267 0
-60 -268 0
-61 -269 0
-62 -270 0
-63 -271 0
-64 -272 0
-49 -201 0
-50 -202 0
-51 -203 0
-52 -204 0
-53 -205 0
-54 -206 0
-55 -207 0
-56 -208 0
-41 -297 0
-42 -298 0
-43 -299 0
-44 -300 0
-45 -301 0
-46 -302 0
-47 -303 0
-48 -304 0
-33 -297 0
-34 -298 0
-35 -299 0
-36 -300 0
-37 -301 0
-38 -302 0
-39 -303 0
-40 -304 0
-89 -201 0
-90 -202 0
-91 -203 0
-92 -204 0
-93 -205 0
-94 -206 0
-95 -207 0
-96 -208 0
-273 -329 0
-274 -330 0
-275 -331 0
-276 -332 0
-277 -333 0
-278 -334 0
-279 -335 0
-280 -336 0
-65 -273 0
-66 -274 0
-67 -275 0
-68 -276 0
-69 -277 0
-70 -278 0
-71 -279 0
-72 -280 0
-121 -265 0
-122 -266 0
-123 -267 0
-124 -268 0
-125 -269 0
-126 -270 0
-127 -271 0
-128 -272 0
-137 -225 0
-138 -226 0
-139 -227 0
-140 -228 0
-141 -229 0
-142 -230 0
-143 -231 0
-144 -232 0
-129 -273 0
-130 -274 0
-131 -275 0
-132 -276 0
-133 -277 0
-134 -278 0
-135 -279 0
-136 -280 0
-113 -313 0
-114 -314 0
-115 -315 0
-116 -316 0
-117 -317 0
-118 -318 0
-119 -319 0
-120 -320 0
-105 -249 0
-106 -250 0
-107 -251 0
-108 -252 0
-109 -253 0
-110 -254 0
-111 -255 0
-112 -256 0
-17 -225 0
-18 -226 0
-19 -227 0
-20 -228 0
-21 -229 0
-22 -230 0
-23 -231 0
-24 -232 0
-185 -249 0
-186 -250 0
-187 -251 0
-188 -252 0
-189 -253 0
-190 -254 0
-191 -255 0
-192 -256 0
-97 -329 0
-98 -330 0
-99 -331 0
-100 -332 0
-101 -333 0
-102 -334 0
-103 -335 0
-104 -336 0
